(set-info :smt-lib-version 2.6)
(set-option :produce-assignments true)
(set-logic BPA)
(set-info :source | Kaya Guvendi and Ethan Bogle |)
(set-info :category "crafted")
(set-info :status unsat)
(declare-const pt Pointer)
(declare-const c Int)
(declare-const a Int)
(declare-const a_sum Int)
(assert (= a (+ (Base (Block pt)) (Offset pt))))
(assert (= a_sum (+ (Base (Block (+p pt c))) (Offset (+p pt c)))))
(assert (or (< (Align (+p pt c)) 0) (> (Align (+p pt c)) 7)))
(check-sat)
(exit)